(set-logic QF_LIA)
(declare-fun x0 () Int)
(declare-fun x1 () Int)
(declare-fun x2 () Int)
(declare-fun x3 () Int)
(declare-fun x4 () Int)
(declare-fun x5 () Int)
(declare-fun x6 () Int)
(declare-fun x7 () Int)
(declare-fun x8 () Int)
(declare-fun x9 () Int)
(declare-fun A0 () Bool)
(declare-fun A1 () Bool)
(declare-fun A2 () Bool)
(declare-fun A3 () Bool)
(declare-fun A4 () Bool)
(declare-fun A5 () Bool)
(declare-fun A6 () Bool)
(declare-fun A7 () Bool)
(declare-fun A8 () Bool)
(declare-fun A9 () Bool)
(assert (let ((.def_0 (* (- 1) x8))) (let ((.def_1 (* (- 1) x4))) (let ((.def_2 (+ .def_1 .def_0))) (let ((.def_3 (< .def_2 1))) (let ((.def_4 (not .def_3))) (let ((.def_5 (or .def_4 A9))) (let ((.def_6 (not .def_5))) (let ((.def_7 (< .def_1 1))) (let ((.def_8 (* 1 x0))) (let ((.def_9 (< .def_8 (- 1)))) (let ((.def_10 (not .def_9))) (let ((.def_11 (and .def_10 .def_7))) (let ((.def_12 (or .def_11 .def_6))) (let ((.def_13 (* 1 x7))) (let ((.def_14 (* 1 x2))) (let ((.def_15 (+ .def_14 .def_13))) (let ((.def_16 (< .def_15 (- 1)))) (let ((.def_17 (not A5))) (let ((.def_18 (and .def_17 .def_16))) (let ((.def_19 (not .def_18))) (let ((.def_20 (* 1 x8))) (let ((.def_21 (< .def_20 (- 1)))) (let ((.def_22 (and .def_21 A8))) (let ((.def_23 (not .def_22))) (let ((.def_24 (and .def_23 .def_19))) (let ((.def_25 (and .def_24 .def_12))) (let ((.def_26 (not A3))) (let ((.def_27 (not .def_7))) (let ((.def_28 (and .def_27 .def_26))) (let ((.def_29 (not .def_28))) (let ((.def_30 (not A7))) (let ((.def_31 (not A0))) (let ((.def_32 (or .def_31 .def_30))) (let ((.def_33 (not .def_32))) (let ((.def_34 (or .def_33 .def_29))) (let ((.def_35 (not .def_34))) (let ((.def_36 (< .def_14 1))) (let ((.def_37 (not A4))) (let ((.def_38 (or .def_37 .def_36))) (let ((.def_39 (and A6 .def_26))) (let ((.def_40 (not .def_39))) (let ((.def_41 (or .def_40 .def_38))) (let ((.def_42 (not .def_41))) (let ((.def_43 (or .def_42 .def_35))) (let ((.def_44 (and .def_43 .def_25))) (let ((.def_45 (< .def_0 (- 1)))) (let ((.def_46 (= .def_45 A1))) (let ((.def_47 (* (- 1) x9))) (let ((.def_48 (< .def_47 1))) (let ((.def_49 (and .def_26 .def_48))) (let ((.def_50 (and .def_49 .def_46))) (let ((.def_51 (not A2))) (let ((.def_52 (or .def_51 .def_51))) (let ((.def_53 (not .def_52))) (let ((.def_54 (< .def_13 1))) (let ((.def_55 (or .def_54 .def_26))) (let ((.def_56 (not .def_55))) (let ((.def_57 (and .def_56 .def_53))) (let ((.def_58 (and .def_57 .def_50))) (let ((.def_59 (< .def_14 (- 1)))) (let ((.def_60 (or .def_59 A0))) (let ((.def_61 (not .def_60))) (let ((.def_62 (and .def_37 .def_26))) (let ((.def_63 (and .def_62 .def_61))) (let ((.def_64 (not .def_63))) (let ((.def_65 (+ .def_14 .def_20))) (let ((.def_66 (< .def_65 (- 1)))) (let ((.def_67 (not .def_66))) (let ((.def_68 (not A9))) (let ((.def_69 (or .def_68 .def_67))) (let ((.def_70 (* (- 1) x7))) (let ((.def_71 (< .def_70 (- 1)))) (let ((.def_72 (not .def_71))) (let ((.def_73 (and A3 .def_72))) (let ((.def_74 (and .def_73 .def_69))) (let ((.def_75 (not .def_74))) (let ((.def_76 (and .def_75 .def_64))) (let ((.def_77 (not .def_76))) (let ((.def_78 (or .def_77 .def_58))) (let ((.def_79 (and .def_78 .def_44))) (let ((.def_80 (not .def_79))) (let ((.def_81 (<= x9 1))) (let ((.def_82 (<= 0 x9))) (let ((.def_83 (<= x8 1))) (let ((.def_84 (<= 0 x8))) (let ((.def_85 (<= x7 1))) (let ((.def_86 (<= 0 x7))) (let ((.def_87 (<= x6 1))) (let ((.def_88 (<= 0 x6))) (let ((.def_89 (<= x5 1))) (let ((.def_90 (<= 0 x5))) (let ((.def_91 (<= x4 1))) (let ((.def_92 (<= 0 x4))) (let ((.def_93 (<= x3 1))) (let ((.def_94 (<= 0 x3))) (let ((.def_95 (<= x2 1))) (let ((.def_96 (<= 0 x2))) (let ((.def_97 (<= x1 1))) (let ((.def_98 (<= 0 x1))) (let ((.def_99 (<= x0 1))) (let ((.def_100 (<= 0 x0))) (let ((.def_101 (and .def_100 .def_99 .def_98 .def_97 .def_96 .def_95 .def_94 .def_93 .def_92 .def_91 .def_90 .def_89 .def_88 .def_87 .def_86 .def_85 .def_84 .def_83 .def_82 .def_81 .def_80))) .def_101)))))))))))))))))))))))))))))))))))))))))))))))))))))))))))))))))))))))))))))))))))))))))))))))))))))))
(check-sat)
